p cnf 132 448
-2 3 -4 0
2 -3 -4 0
-2 -3 4 0
2 3 4 0
1 -4 -5 0
-1 4 -5 0
1 4 5 0
-1 -4 5 0
7 -2 0
7 -6 0
2 6 -7 0
-8 7 0
-8 -5 0
-7 5 8 0
9 2 0
9 -8 0
-2 8 -9 0
-10 -5 0
-10 9 0
5 -9 10 0
-12 -6 0
-12 -11 0
6 11 12 0
-12 -14 -15 0
12 14 -15 0
-12 14 15 0
12 -14 15 0
16 -3 0
16 -15 0
3 15 -16 0
-19 17 0
-19 18 0
-17 -18 19 0
-20 13 0
-20 19 0
-13 -19 20 0
-21 -16 0
-21 -20 0
16 20 21 0
13 21 -22 0
-13 -21 -22 0
13 -21 22 0
-13 21 22 0
23 12 0
23 -22 0
-12 22 -23 0
-24 1 0
-24 16 0
-1 -16 24 0
-23 24 -25 0
23 -24 -25 0
-23 -24 25 0
23 24 25 0
-10 -25 -26 0
10 25 -26 0
-10 25 26 0
10 -25 26 0
-27 15 0
-27 -19 0
-15 19 27 0
-28 27 0
-28 -9 0
-27 9 28 0
-29 12 0
-29 -28 0
-12 28 29 0
30 -29 0
30 -17 0
29 17 -30 0
-31 6 0
-31 9 0
-6 -9 31 0
32 17 0
32 -1 0
-17 1 -32 0
34 32 0
34 -33 0
-32 33 -34 0
35 -31 0
35 -34 0
31 34 -35 0
36 -28 0
36 -6 0
28 6 -36 0
35 36 -37 0
-35 -36 -37 0
35 -36 37 0
-35 36 37 0
-38 -28 0
-38 -37 0
28 37 38 0
-39 -38 0
-39 19 0
38 -19 39 0
-40 -30 0
-40 39 0
30 -39 40 0
-41 18 -42 0
41 -18 -42 0
-41 -18 42 0
41 18 42 0
17 -42 -43 0
-17 42 -43 0
17 42 43 0
-17 -42 43 0
45 44 0
45 -41 0
-44 41 -45 0
-13 45 -46 0
13 -45 -46 0
-13 -45 46 0
13 45 46 0
47 20 0
47 -17 0
-20 17 -47 0
-46 -47 -48 0
46 47 -48 0
-46 47 48 0
46 -47 48 0
-49 43 0
-49 48 0
-43 -48 49 0
50 40 0
50 49 0
-40 -49 -50 0
-51 7 0
-51 13 0
-7 -13 51 0
-52 51 0
-52 -7 0
-51 7 52 0
-11 53 -54 0
11 -53 -54 0
-11 -53 54 0
11 53 54 0
55 -54 0
55 17 0
54 -17 -55 0
55 -2 -56 0
-55 2 -56 0
55 2 56 0
-55 -2 56 0
-52 -56 -57 0
52 56 -57 0
-52 56 57 0
52 -56 57 0
58 3 0
58 12 0
-3 -12 -58 0
-59 45 0
-59 -58 0
-45 58 59 0
60 12 0
60 53 0
-12 -53 -60 0
61 -59 0
61 -60 0
59 60 -61 0
62 -61 0
62 28 0
61 -28 -62 0
-63 -57 0
-63 62 0
57 -62 63 0
24 -5 -64 0
-24 5 -64 0
24 5 64 0
-24 -5 64 0
-28 64 -65 0
28 -64 -65 0
-28 -64 65 0
28 64 65 0
-66 4 0
-66 1 0
-4 -1 66 0
65 66 -67 0
-65 -66 -67 0
65 -66 67 0
-65 66 67 0
68 22 0
68 16 0
-22 -16 -68 0
68 -41 -69 0
-68 41 -69 0
68 41 69 0
-68 -41 69 0
70 -67 0
70 -69 0
67 69 -70 0
42 -9 -71 0
-42 9 -71 0
42 9 71 0
-42 -9 71 0
-72 64 0
-72 -41 0
-64 41 72 0
71 72 -73 0
-71 -72 -73 0
71 -72 73 0
-71 72 73 0
13 6 -74 0
-13 -6 -74 0
13 -6 74 0
-13 6 74 0
-75 -4 -76 0
75 4 -76 0
-75 4 76 0
75 -4 76 0
-77 -74 0
-77 -76 0
74 76 77 0
-41 -68 -78 0
41 68 -78 0
-41 68 78 0
41 -68 78 0
79 46 0
79 -46 0
80 -78 0
80 79 0
78 -79 -80 0
-81 -58 0
-81 16 0
58 -16 81 0
-81 68 -82 0
81 -68 -82 0
-81 -68 82 0
81 68 82 0
-83 80 0
-83 -82 0
-80 82 83 0
84 78 0
84 83 0
-78 -83 -84 0
-77 -84 -85 0
77 84 -85 0
-77 84 85 0
77 -84 85 0
-86 -20 0
-86 -20 0
20 86 0
85 -86 -87 0
-85 86 -87 0
85 86 87 0
-85 -86 87 0
-88 -73 0
-88 87 0
73 -87 88 0
-89 17 -90 0
89 -17 -90 0
-89 -17 90 0
89 17 90 0
-91 90 0
-91 -6 0
-90 6 91 0
92 91 0
92 -15 0
-91 15 -92 0
9 8 -93 0
-9 -8 -93 0
9 -8 93 0
-9 8 93 0
92 93 -94 0
-92 -93 -94 0
92 -93 94 0
-92 93 94 0
88 94 -95 0
-88 -94 -95 0
88 -94 95 0
-88 94 95 0
70 -95 -96 0
-70 95 -96 0
70 95 96 0
-70 -95 96 0
97 -63 0
97 -96 0
63 96 -97 0
98 -4 0
98 53 0
4 -53 -98 0
99 -44 0
99 54 0
44 -54 -99 0
-100 36 0
-100 42 0
-36 -42 100 0
101 -99 0
101 -100 0
99 100 -101 0
6 -12 -102 0
-6 12 -102 0
6 12 102 0
-6 -12 102 0
-102 -5 -103 0
102 5 -103 0
-102 5 103 0
102 -5 103 0
104 -103 0
104 14 0
103 -14 -104 0
-105 101 0
-105 -104 0
-101 104 105 0
106 -79 0
106 8 0
79 -8 -106 0
-107 -105 0
-107 -106 0
105 106 107 0
98 107 -108 0
-98 -107 -108 0
98 -107 108 0
-98 107 108 0
109 97 0
109 -108 0
-97 108 -109 0
110 -44 0
110 -5 0
44 5 -110 0
-111 -110 0
-111 61 0
110 -61 111 0
111 -47 -112 0
-111 47 -112 0
111 47 112 0
-111 -47 112 0
114 -9 0
114 113 0
9 -113 -114 0
115 112 0
115 -114 0
-112 114 -115 0
-7 20 -116 0
7 -20 -116 0
-7 -20 116 0
7 20 116 0
-64 -8 -117 0
64 8 -117 0
-64 8 117 0
64 -8 117 0
116 117 -118 0
-116 -117 -118 0
116 -117 118 0
-116 117 118 0
-119 115 0
-119 118 0
-115 -118 119 0
-120 -8 0
-120 -81 0
8 81 120 0
-18 -13 -121 0
18 13 -121 0
-18 13 121 0
18 -13 121 0
122 121 0
122 -17 0
-121 17 -122 0
123 -120 0
123 -122 0
120 122 -123 0
-124 51 0
-124 -15 0
-51 15 124 0
-125 -124 0
-125 -24 0
124 24 125 0
123 -125 -126 0
-123 125 -126 0
123 125 126 0
-123 -125 126 0
-127 119 0
-127 -126 0
-119 126 127 0
47 -59 -128 0
-47 59 -128 0
47 59 128 0
-47 -59 128 0
-129 127 0
-129 128 0
-127 -128 129 0
109 129 -130 0
-109 -129 -130 0
109 -129 130 0
-109 129 130 0
131 -50 0
131 130 0
50 -130 -131 0
132 26 0
132 131 0
-26 -131 -132 0
-110 109 -85 -129 64 0
-75 81 120 -14 0
-23 -79 0
-112 99 100 0
25 16 26 -105 35 0
3 -88 -6 0
-9 50 0
-24 -108 -19 -38 -125 71 0
116 -106 100 103 -82 0
53 115 108 87 -113 29 0
41 -61 -83 -128 94 0
6 -25 103 -121 -111 36 0
-56 -57 -119 0
59 79 -121 -64 0
33 116 0
103 -26 -50 -27 118 0
-87 -113 -21 75 60 6 0
-10 69 24 0
108 120 13 64 0
125 85 50 98 89 -105 0
106 26 40 -42 0
-52 72 -121 82 -49 0
-89 120 37 0
-10 -68 -32 -110 -40 0
-46 -48 51 75 12 0
112 -117 -101 77 0
-102 -29 0
-58 42 -111 -103 0
-13 30 17 118 5 22 0
-66 14 -19 115 0
25 -86 107 0
51 -64 120 12 0
-23 -73 -69 -61 -88 0
-75 37 42 0
40 48 65 -92 0
88 -6 -73 0
-88 -110 -68 124 0
-86 52 -82 53 0
3 -131 79 125 0
-65 13 23 58 -47 -48 0
-98 26 -38 44 -51 -80 0
-45 -50 69 92 0
-109 -60 -119 0
-9 -52 -20 -121 0
-130 -21 19 110 18 -6 0
-2 -97 -81 -47 0
115 103 48 -51 0
-107 64 128 -58 26 0
9 61 89 0
-87 91 -42 53 0
45 42 -47 -95 114 0
52 -86 34 54 -49 0
-28 15 32 0
-2 114 35 27 -111 109 0
-93 107 -75 82 118 0
84 81 -112 -1 0
-39 -75 0
-75 21 98 56 0
132 0
